Input file: instance_7.lp
Input data:
num_squadre(2).
player(1, difensore, attaccante).
player(2, centrocampista, portiere).
player(3, portiere, centrocampista).
player(4, attaccante, centrocampista).
player(5, portiere, difensore).
player(6, difensore, centrocampista).
player(7, portiere, difensore).
player(8, difensore, centrocampista).
player(9, difensore, centrocampista).
player(10, attaccante, centrocampista).
player(11, difensore, portiere).
player(12, difensore, attaccante).
player(13, centrocampista, difensore).
player(14, portiere, difensore).
different_team(1, 2).


Output Clingo:
clingo version 5.7.1
Reading from ...ed-Reasoning-Project\Clingo\implASP.lp ...
Solving...
Answer: 1
assigned(1,1,difensore) assigned(2,2,centrocampista) assigned(3,1,centrocampista) assigned(4,2,attaccante) assigned(5,1,portiere) assigned(6,1,centrocampista) assigned(7,2,portiere) assigned(8,2,difensore) assigned(9,1,difensore) assigned(10,1,centrocampista) assigned(11,2,difensore) assigned(12,1,attaccante) assigned(13,1,difensore) assigned(14,2,difensore) total_penalty(1)
Optimization: 1
Answer: 2
assigned(1,1,attaccante) assigned(2,2,centrocampista) assigned(3,2,centrocampista) assigned(4,2,attaccante) assigned(5,1,portiere) assigned(6,1,centrocampista) assigned(7,2,difensore) assigned(8,1,difensore) assigned(9,2,difensore) assigned(10,1,centrocampista) assigned(11,2,portiere) assigned(12,2,difensore) assigned(13,1,difensore) assigned(14,1,difensore) total_penalty(0)
Optimization: 0
Answer: 1
assigned(1,1,attaccante) assigned(2,2,centrocampista) assigned(3,1,centrocampista) assigned(4,2,centrocampista) assigned(5,1,portiere) assigned(6,1,centrocampista) assigned(7,2,difensore) assigned(8,1,difensore) assigned(9,2,difensore) assigned(10,2,attaccante) assigned(11,2,portiere) assigned(12,2,difensore) assigned(13,1,difensore) assigned(14,1,difensore) total_penalty(0)
Optimization: 0
OPTIMUM FOUND

Models       : 3+
  Optimum    : yes
Optimization : 0
Calls        : 1
Time         : 0.005s (Solving: 0.00s 1st Model: 0.00s Unsat: 0.00s)
CPU Time     : 0.000s

Tempo di esecuzione Clingo: 0.02 secondi
